(set-logic QF_S)
(declare-fun var0 () String)
(declare-fun var1 () Int)
(declare-fun var2 () String)
(declare-fun var3 () Int)
(declare-fun var4 () String)
(declare-fun var5 () String)
(declare-fun var6 () Bool)
(assert (str.suffixof (str.at var0 var1) (str.at var2 var3)))
(assert (not (str.prefixof var4 var5)))
(assert (str.contains var2 var0))
(assert (not var6))
(check-sat)